Minimize
  - 20 y_0 - 21 y_1 - 15 y_2 - 19 y_3 - 33 y_4 - 23 y_5 - 12 y_6 - 27 y_7
   - 28 y_8 - 25 y_9 - 22 y_11 - 17 y_12 - 5 y_13 - 9 y_14 - 32 y_15
   - 19 y_16 - 26 y_17 - 15 y_18 - 15 y_19 - 20 y_20 - 18 y_21 - 27 y_22
   - 19 y_23 - 25 y_24 - 23 y_25 - 19 y_26 - 23 y_27 - 16 y_28 - 32 y_29
   - 15 y_30 - 27 y_31 - 14 y_32 - 13 y_33 - 25 y_34 - 26 y_35 - 22 y_36
   - 14 y_37 - 21 y_38 - 14 y_39 - 12 y_40 - 23 y_41 - 7 y_42 - 27 y_43
   - 11 y_44 - 27 y_45 - 8 y_46 - 9 y_47 - 15 y_48 - 17 y_49 + 73 x_0_9
   + 17 x_0_12 + 37 x_0_13 + 78 x_0_16 + 52 x_0_18 + 26 x_0_21 + 22 x_0_25
   + 74 x_0_26 + 70 x_0_30 + 86 x_0_31 + 77 x_0_38 + 39 x_0_39 + 54 x_0_42
   + 80 x_0_43 + 61 x_0_44 + 34 x_0_46 + 17 x_0_49 + 24 x_1_4 + 20 x_1_9
   + 74 x_1_12 + 27 x_1_18 + 57 x_1_23 + 13 x_1_31 + 27 x_1_33 + 69 x_1_35
   + 56 x_1_38 + 39 x_1_39 + 50 x_1_40 + 38 x_1_44 + 75 x_1_49 + 75 x_2_4
   + 60 x_2_8 + 31 x_2_18 + 69 x_2_20 + 32 x_2_22 + 34 x_2_24 + 56 x_2_26
   + 25 x_2_28 + 75 x_2_29 + 41 x_2_32 + 18 x_2_37 + 18 x_2_39 + 52 x_2_40
   + 44 x_2_42 + 59 x_2_45 + 86 x_3_4 + 40 x_3_7 + 64 x_3_9 + 51 x_3_19
   + 35 x_3_21 + 16 x_3_23 + 38 x_3_27 + 78 x_3_38 + 59 x_3_40 + 52 x_3_42
   + 47 x_3_47 + 63 x_4_7 + 24 x_4_9 + 65 x_4_10 + 92 x_4_15 + 57 x_4_16
   + 43 x_4_18 + 62 x_4_20 + 74 x_4_23 + 111 x_4_27 + 94 x_4_28 + 37 x_4_32
   + 72 x_4_36 + 57 x_4_39 + 60 x_4_42 + 62 x_4_44 + 82 x_4_46 + 71 x_4_48
   + 60 x_5_6 + 36 x_5_14 + 50 x_5_18 + 21 x_5_26 + 43 x_5_29 + 16 x_5_30
   + 36 x_5_31 + 37 x_5_32 + 28 x_5_36 + 60 x_5_37 + 35 x_5_38 + 40 x_5_40
   + 59 x_5_46 + 73 x_6_7 + 25 x_6_12 + 73 x_6_22 + 52 x_6_23 + 71 x_6_24
   + 55 x_6_25 + 32 x_6_27 + 47 x_6_30 + 77 x_6_31 + 49 x_6_33 + 44 x_6_35
   + 46 x_6_36 + 49 x_6_37 + 40 x_6_38 + 22 x_6_40 + 60 x_6_41 + 31 x_6_44
   + 25 x_6_49 + 69 x_7_14 + 30 x_7_15 + 81 x_7_16 + 77 x_7_17 + 30 x_7_18
   + 80 x_7_19 + 85 x_7_20 + 77 x_7_27 + 58 x_7_28 + 93 x_7_36 + 93 x_7_38
   + 26 x_7_39 + 47 x_7_47 + 64 x_7_49 + 55 x_8_10 + 53 x_8_11 + 46 x_8_13
   + 81 x_8_16 + 83 x_8_18 + 91 x_8_22 + 94 x_8_24 + 68 x_8_35 + 94 x_8_41
   + 65 x_8_44 + 65 x_8_48 + 68 x_9_15 + 56 x_9_16 + 94 x_9_17 + 32 x_9_24
   + 20 x_9_31 + 87 x_9_35 + 74 x_9_38 + 65 x_9_40 + 49 x_9_41 + 40 x_10_0
   + 34 x_10_12 + 45 x_10_25 + 37 x_10_26 + 33 x_10_28 + 26 x_10_33
   + 44 x_10_36 + 15 x_10_42 + 54 x_10_43 + 22 x_10_44 + 31 x_10_48
   + 55 x_11_12 + 104 x_11_15 + 98 x_11_22 + 80 x_11_23 + 84 x_11_25
   + 61 x_11_26 + 59 x_11_27 + 59 x_11_28 + 91 x_11_29 + 81 x_11_31
   + 60 x_11_34 + 15 x_11_35 + 19 x_11_38 + 52 x_11_41 + 36 x_11_42
   + 52 x_11_45 + 45 x_12_14 + 56 x_12_15 + 71 x_12_26 + 60 x_12_32
   + 52 x_12_33 + 46 x_12_37 + 64 x_12_38 + 46 x_12_39 + 83 x_12_43
   + 22 x_12_46 + 36 x_12_48 + 18 x_13_14 + 43 x_13_17 + 43 x_13_20
   + 27 x_13_21 + 60 x_13_22 + 58 x_13_24 + 47 x_13_25 + 46 x_13_26
   + 28 x_13_28 + 37 x_13_30 + 19 x_13_42 + 45 x_13_45 + 7 x_13_46
   + 43 x_14_18 + 43 x_14_21 + 66 x_14_29 + 35 x_14_32 + 42 x_14_34
   + 8 x_14_40 + 36 x_14_41 + 57 x_14_45 + 26 x_14_47 + 99 x_15_16
   + 53 x_15_18 + 65 x_15_21 + 26 x_15_23 + 37 x_15_24 + 20 x_15_25
   + 93 x_15_29 + 87 x_15_31 + 86 x_15_40 + 66 x_15_46 + 85 x_16_17
   + 67 x_16_21 + 84 x_16_22 + 55 x_16_29 + 47 x_16_31 + 58 x_16_37
   + 26 x_16_40 + 35 x_16_47 + 17 x_17_21 + 88 x_17_26 + 6 x_17_27
   + 77 x_17_32 + 69 x_17_33 + 62 x_17_37 + 62 x_17_39 + 37 x_17_46
   + 68 x_17_47 + 50 x_17_48 + 31 x_18_26 + 70 x_18_27 + 52 x_18_28
   + 5 x_18_33 + 64 x_18_36 + 13 x_18_37 + 65 x_18_38 + 28 x_18_48
   + 62 x_19_25 + 91 x_19_29 + 81 x_19_31 + 55 x_19_33 + 68 x_19_34
   + 39 x_19_35 + 37 x_19_38 + 83 x_19_43 + 33 x_19_44 + 52 x_20_33
   + 29 x_20_35 + 61 x_20_37 + 61 x_20_39 + 25 x_20_40 + 62 x_20_43
   + 78 x_20_45 + 70 x_20_49 + 48 x_21_23 + 56 x_21_33 + 42 x_21_40
   + 78 x_21_41 + 46 x_21_42 + 8 x_21_49 + 75 x_22_27 + 70 x_22_30
   + 63 x_22_31 + 47 x_22_32 + 82 x_22_34 + 94 x_22_38 + 91 x_22_45
   + 63 x_22_49 + 59 x_23_26 + 74 x_23_29 + 89 x_23_35 + 18 x_23_37
   + 80 x_23_38 + 68 x_23_45 + 59 x_24_28 + 52 x_24_31 + 38 x_24_32
   + 73 x_24_40 + 74 x_24_41 + 93 x_24_45 + 62 x_24_46 + 71 x_25_26
   + 30 x_25_37 + 65 x_25_45 + 47 x_25_46 + 38 x_25_49 + 31 x_26_29
   + 21 x_26_31 + 17 x_26_32 + 30 x_26_33 + 42 x_26_37 + 47 x_26_38
   + 29 x_26_42 + 90 x_26_45 + 21 x_26_47 + 54 x_26_48 + 76 x_27_30
   + 60 x_27_39 + 32 x_27_46 + 64 x_27_47 + 84 x_28_31 + 57 x_28_32
   + 72 x_28_36 + 40 x_28_37 + 40 x_28_39 + 47 x_28_40 + 79 x_28_43
   + 52 x_28_44 + 7 x_28_49 + 70 x_29_36 + 57 x_29_37 + 61 x_29_44
   + 81 x_29_46 + 71 x_29_48 + 34 x_30_33 + 20 x_30_34 + 29 x_30_36
   + 33 x_30_38 + 16 x_30_41 + 80 x_30_45 + 44 x_30_46 + 27 x_31_32
   + 67 x_31_38 + 63 x_31_40 + 71 x_31_46 + 36 x_31_47 + 43 x_32_40
   + 36 x_32_41 + 33 x_32_44 + 45 x_32_46 + 38 x_32_48 + 61 x_32_49
   + 72 x_33_35 + 31 x_33_43 + 77 x_33_45 + 59 x_34_37 + 43 x_34_38
   + 99 x_34_45 + 38 x_34_47 + 71 x_34_48 + 78 x_35_37 + 13 x_35_38
   + 41 x_35_42 + 66 x_35_45 + 69 x_35_49 + 25 x_36_40 + 27 x_36_41
   + 30 x_36_42 + 23 x_36_44 + 59 x_37_41 + 73 x_37_45 + 23 x_37_47
   + 14 x_37_48 + 35 x_38_41 + 29 x_38_42 + 76 x_38_43 + 22 x_38_44
   + 65 x_38_49 + 51 x_39_40 + 45 x_39_44 + 14 x_39_48 + 39 x_40_41
   + 53 x_40_45 + 54 x_40_48 + 28 x_41_44 + 36 x_41_47 + 53 x_42_43
   + 26 x_42_46 + 54 x_43_48 + 52 x_44_49 + 37 x_46_48 + 952 Constant
Subject To
 c_0: y_10 = 1
 c_1_0: y_0 >= 1
 c_1_1: y_1 >= 1
 c_1_2: y_2 + y_48 >= 1
 c_1_3: y_3 >= 1
 c_1_4: y_4 + y_29 >= 1
 c_1_5: y_5 + y_41 >= 1
 c_1_6: y_6 >= 1
 c_1_7: y_7 + y_22 >= 1
 c_1_8: y_8 + y_45 >= 1
 c_1_9: y_9 + y_43 >= 1
 c_1_10: y_10 >= 1
 c_1_11: y_11 >= 1
 c_1_12: y_12 + y_28 + y_49 >= 1
 c_1_13: y_13 >= 1
 c_1_14: y_14 >= 1
 c_1_15: y_15 >= 1
 c_1_16: y_16 + y_20 >= 1
 c_1_17: y_17 + y_27 >= 1
 c_1_18: y_18 + y_33 >= 1
 c_1_19: y_19 >= 1
 c_1_20: y_16 + y_20 >= 1
 c_1_21: y_21 >= 1
 c_1_22: y_7 + y_22 >= 1
 c_1_23: y_23 >= 1
 c_1_24: y_24 >= 1
 c_1_25: y_25 >= 1
 c_1_26: y_26 >= 1
 c_1_27: y_17 + y_27 >= 1
 c_1_28: y_12 + y_28 >= 1
 c_1_29: y_4 + y_29 >= 1
 c_1_30: y_30 >= 1
 c_1_31: y_31 >= 1
 c_1_32: y_32 >= 1
 c_1_33: y_18 + y_33 >= 1
 c_1_34: y_34 >= 1
 c_1_35: y_35 >= 1
 c_1_36: y_36 >= 1
 c_1_37: y_37 + y_39 >= 1
 c_1_38: y_38 >= 1
 c_1_39: y_37 + y_39 >= 1
 c_1_40: y_40 >= 1
 c_1_41: y_5 + y_41 >= 1
 c_1_42: y_42 >= 1
 c_1_43: y_9 + y_43 >= 1
 c_1_44: y_44 >= 1
 c_1_45: y_8 + y_45 >= 1
 c_1_46: y_46 >= 1
 c_1_47: y_47 >= 1
 c_1_48: y_2 + y_48 >= 1
 c_1_49: y_12 + y_49 >= 1
 c_2_0: - 2 y_0 + x_0_9 + x_0_12 + x_0_13 + x_0_16 + x_0_18 + x_0_21
   + x_0_25 + x_0_26 + x_0_30 + x_0_31 + x_0_38 + x_0_39 + x_0_42 + x_0_43
   + x_0_44 + x_0_46 + x_0_49 + x_10_0 = 0
 c_2_1: - 2 y_1 + x_1_4 + x_1_9 + x_1_12 + x_1_18 + x_1_23 + x_1_31
   + x_1_33 + x_1_35 + x_1_38 + x_1_39 + x_1_40 + x_1_44 + x_1_49 = 0
 c_2_2: - 2 y_2 + x_2_4 + x_2_8 + x_2_18 + x_2_20 + x_2_22 + x_2_24
   + x_2_26 + x_2_28 + x_2_29 + x_2_32 + x_2_37 + x_2_39 + x_2_40 + x_2_42
   + x_2_45 = 0
 c_2_3: - 2 y_3 + x_3_4 + x_3_7 + x_3_9 + x_3_19 + x_3_21 + x_3_23 + x_3_27
   + x_3_38 + x_3_40 + x_3_42 + x_3_47 = 0
 c_2_4: - 2 y_4 + x_1_4 + x_2_4 + x_3_4 + x_4_7 + x_4_9 + x_4_10 + x_4_15
   + x_4_16 + x_4_18 + x_4_20 + x_4_23 + x_4_27 + x_4_28 + x_4_32 + x_4_36
   + x_4_39 + x_4_42 + x_4_44 + x_4_46 + x_4_48 = 0
 c_2_5: - 2 y_5 + x_5_6 + x_5_14 + x_5_18 + x_5_26 + x_5_29 + x_5_30
   + x_5_31 + x_5_32 + x_5_36 + x_5_37 + x_5_38 + x_5_40 + x_5_46 = 0
 c_2_6: - 2 y_6 + x_5_6 + x_6_7 + x_6_12 + x_6_22 + x_6_23 + x_6_24
   + x_6_25 + x_6_27 + x_6_30 + x_6_31 + x_6_33 + x_6_35 + x_6_36 + x_6_37
   + x_6_38 + x_6_40 + x_6_41 + x_6_44 + x_6_49 = 0
 c_2_7: - 2 y_7 + x_3_7 + x_4_7 + x_6_7 + x_7_14 + x_7_15 + x_7_16 + x_7_17
   + x_7_18 + x_7_19 + x_7_20 + x_7_27 + x_7_28 + x_7_36 + x_7_38 + x_7_39
   + x_7_47 + x_7_49 = 0
 c_2_8: - 2 y_8 + x_2_8 + x_8_10 + x_8_11 + x_8_13 + x_8_16 + x_8_18
   + x_8_22 + x_8_24 + x_8_35 + x_8_41 + x_8_44 + x_8_48 = 0
 c_2_9: - 2 y_9 + x_0_9 + x_1_9 + x_3_9 + x_4_9 + x_9_15 + x_9_16 + x_9_17
   + x_9_24 + x_9_31 + x_9_35 + x_9_38 + x_9_40 + x_9_41 = 0
 c_2_10: - 2 y_10 + x_4_10 + x_8_10 + x_10_0 + x_10_12 + x_10_25 + x_10_26
   + x_10_28 + x_10_33 + x_10_36 + x_10_42 + x_10_43 + x_10_44 + x_10_48
   = 0
 c_2_11: - 2 y_11 + x_8_11 + x_11_12 + x_11_15 + x_11_22 + x_11_23
   + x_11_25 + x_11_26 + x_11_27 + x_11_28 + x_11_29 + x_11_31 + x_11_34
   + x_11_35 + x_11_38 + x_11_41 + x_11_42 + x_11_45 = 0
 c_2_12: - 2 y_12 + x_0_12 + x_1_12 + x_6_12 + x_10_12 + x_11_12 + x_12_14
   + x_12_15 + x_12_26 + x_12_32 + x_12_33 + x_12_37 + x_12_38 + x_12_39
   + x_12_43 + x_12_46 + x_12_48 = 0
 c_2_13: - 2 y_13 + x_0_13 + x_8_13 + x_13_14 + x_13_17 + x_13_20 + x_13_21
   + x_13_22 + x_13_24 + x_13_25 + x_13_26 + x_13_28 + x_13_30 + x_13_42
   + x_13_45 + x_13_46 = 0
 c_2_14: - 2 y_14 + x_5_14 + x_7_14 + x_12_14 + x_13_14 + x_14_18 + x_14_21
   + x_14_29 + x_14_32 + x_14_34 + x_14_40 + x_14_41 + x_14_45 + x_14_47
   = 0
 c_2_15: - 2 y_15 + x_4_15 + x_7_15 + x_9_15 + x_11_15 + x_12_15 + x_15_16
   + x_15_18 + x_15_21 + x_15_23 + x_15_24 + x_15_25 + x_15_29 + x_15_31
   + x_15_40 + x_15_46 = 0
 c_2_16: - 2 y_16 + x_0_16 + x_4_16 + x_7_16 + x_8_16 + x_9_16 + x_15_16
   + x_16_17 + x_16_21 + x_16_22 + x_16_29 + x_16_31 + x_16_37 + x_16_40
   + x_16_47 = 0
 c_2_17: - 2 y_17 + x_7_17 + x_9_17 + x_13_17 + x_16_17 + x_17_21 + x_17_26
   + x_17_27 + x_17_32 + x_17_33 + x_17_37 + x_17_39 + x_17_46 + x_17_47
   + x_17_48 = 0
 c_2_18: - 2 y_18 + x_0_18 + x_1_18 + x_2_18 + x_4_18 + x_5_18 + x_7_18
   + x_8_18 + x_14_18 + x_15_18 + x_18_26 + x_18_27 + x_18_28 + x_18_33
   + x_18_36 + x_18_37 + x_18_38 + x_18_48 = 0
 c_2_19: - 2 y_19 + x_3_19 + x_7_19 + x_19_25 + x_19_29 + x_19_31 + x_19_33
   + x_19_34 + x_19_35 + x_19_38 + x_19_43 + x_19_44 = 0
 c_2_20: - 2 y_20 + x_2_20 + x_4_20 + x_7_20 + x_13_20 + x_20_33 + x_20_35
   + x_20_37 + x_20_39 + x_20_40 + x_20_43 + x_20_45 + x_20_49 = 0
 c_2_21: - 2 y_21 + x_0_21 + x_3_21 + x_13_21 + x_14_21 + x_15_21 + x_16_21
   + x_17_21 + x_21_23 + x_21_33 + x_21_40 + x_21_41 + x_21_42 + x_21_49
   = 0
 c_2_22: - 2 y_22 + x_2_22 + x_6_22 + x_8_22 + x_11_22 + x_13_22 + x_16_22
   + x_22_27 + x_22_30 + x_22_31 + x_22_32 + x_22_34 + x_22_38 + x_22_45
   + x_22_49 = 0
 c_2_23: - 2 y_23 + x_1_23 + x_3_23 + x_4_23 + x_6_23 + x_11_23 + x_15_23
   + x_21_23 + x_23_26 + x_23_29 + x_23_35 + x_23_37 + x_23_38 + x_23_45
   = 0
 c_2_24: - 2 y_24 + x_2_24 + x_6_24 + x_8_24 + x_9_24 + x_13_24 + x_15_24
   + x_24_28 + x_24_31 + x_24_32 + x_24_40 + x_24_41 + x_24_45 + x_24_46
   = 0
 c_2_25: - 2 y_25 + x_0_25 + x_6_25 + x_10_25 + x_11_25 + x_13_25 + x_15_25
   + x_19_25 + x_25_26 + x_25_37 + x_25_45 + x_25_46 + x_25_49 = 0
 c_2_26: - 2 y_26 + x_0_26 + x_2_26 + x_5_26 + x_10_26 + x_11_26 + x_12_26
   + x_13_26 + x_17_26 + x_18_26 + x_23_26 + x_25_26 + x_26_29 + x_26_31
   + x_26_32 + x_26_33 + x_26_37 + x_26_38 + x_26_42 + x_26_45 + x_26_47
   + x_26_48 = 0
 c_2_27: - 2 y_27 + x_3_27 + x_4_27 + x_6_27 + x_7_27 + x_11_27 + x_17_27
   + x_18_27 + x_22_27 + x_27_30 + x_27_39 + x_27_46 + x_27_47 = 0
 c_2_28: - 2 y_28 + x_2_28 + x_4_28 + x_7_28 + x_10_28 + x_11_28 + x_13_28
   + x_18_28 + x_24_28 + x_28_31 + x_28_32 + x_28_36 + x_28_37 + x_28_39
   + x_28_40 + x_28_43 + x_28_44 + x_28_49 = 0
 c_2_29: - 2 y_29 + x_2_29 + x_5_29 + x_11_29 + x_14_29 + x_15_29 + x_16_29
   + x_19_29 + x_23_29 + x_26_29 + x_29_36 + x_29_37 + x_29_44 + x_29_46
   + x_29_48 = 0
 c_2_30: - 2 y_30 + x_0_30 + x_5_30 + x_6_30 + x_13_30 + x_22_30 + x_27_30
   + x_30_33 + x_30_34 + x_30_36 + x_30_38 + x_30_41 + x_30_45 + x_30_46
   = 0
 c_2_31: - 2 y_31 + x_0_31 + x_1_31 + x_5_31 + x_6_31 + x_9_31 + x_11_31
   + x_15_31 + x_16_31 + x_19_31 + x_22_31 + x_24_31 + x_26_31 + x_28_31
   + x_31_32 + x_31_38 + x_31_40 + x_31_46 + x_31_47 = 0
 c_2_32: - 2 y_32 + x_2_32 + x_4_32 + x_5_32 + x_12_32 + x_14_32 + x_17_32
   + x_22_32 + x_24_32 + x_26_32 + x_28_32 + x_31_32 + x_32_40 + x_32_41
   + x_32_44 + x_32_46 + x_32_48 + x_32_49 = 0
 c_2_33: - 2 y_33 + x_1_33 + x_6_33 + x_10_33 + x_12_33 + x_17_33 + x_18_33
   + x_19_33 + x_20_33 + x_21_33 + x_26_33 + x_30_33 + x_33_35 + x_33_43
   + x_33_45 = 0
 c_2_34: - 2 y_34 + x_11_34 + x_14_34 + x_19_34 + x_22_34 + x_30_34
   + x_34_37 + x_34_38 + x_34_45 + x_34_47 + x_34_48 = 0
 c_2_35: - 2 y_35 + x_1_35 + x_6_35 + x_8_35 + x_9_35 + x_11_35 + x_19_35
   + x_20_35 + x_23_35 + x_33_35 + x_35_37 + x_35_38 + x_35_42 + x_35_45
   + x_35_49 = 0
 c_2_36: - 2 y_36 + x_4_36 + x_5_36 + x_6_36 + x_7_36 + x_10_36 + x_18_36
   + x_28_36 + x_29_36 + x_30_36 + x_36_40 + x_36_41 + x_36_42 + x_36_44
   = 0
 c_2_37: - 2 y_37 + x_2_37 + x_5_37 + x_6_37 + x_12_37 + x_16_37 + x_17_37
   + x_18_37 + x_20_37 + x_23_37 + x_25_37 + x_26_37 + x_28_37 + x_29_37
   + x_34_37 + x_35_37 + x_37_41 + x_37_45 + x_37_47 + x_37_48 = 0
 c_2_38: - 2 y_38 + x_0_38 + x_1_38 + x_3_38 + x_5_38 + x_6_38 + x_7_38
   + x_9_38 + x_11_38 + x_12_38 + x_18_38 + x_19_38 + x_22_38 + x_23_38
   + x_26_38 + x_30_38 + x_31_38 + x_34_38 + x_35_38 + x_38_41 + x_38_42
   + x_38_43 + x_38_44 + x_38_49 = 0
 c_2_39: - 2 y_39 + x_0_39 + x_1_39 + x_2_39 + x_4_39 + x_7_39 + x_12_39
   + x_17_39 + x_20_39 + x_27_39 + x_28_39 + x_39_40 + x_39_44 + x_39_48
   = 0
 c_2_40: - 2 y_40 + x_1_40 + x_2_40 + x_3_40 + x_5_40 + x_6_40 + x_9_40
   + x_14_40 + x_15_40 + x_16_40 + x_20_40 + x_21_40 + x_24_40 + x_28_40
   + x_31_40 + x_32_40 + x_36_40 + x_39_40 + x_40_41 + x_40_45 + x_40_48
   = 0
 c_2_41: - 2 y_41 + x_6_41 + x_8_41 + x_9_41 + x_11_41 + x_14_41 + x_21_41
   + x_24_41 + x_30_41 + x_32_41 + x_36_41 + x_37_41 + x_38_41 + x_40_41
   + x_41_44 + x_41_47 = 0
 c_2_42: - 2 y_42 + x_0_42 + x_2_42 + x_3_42 + x_4_42 + x_10_42 + x_11_42
   + x_13_42 + x_21_42 + x_26_42 + x_35_42 + x_36_42 + x_38_42 + x_42_43
   + x_42_46 = 0
 c_2_43: - 2 y_43 + x_0_43 + x_10_43 + x_12_43 + x_19_43 + x_20_43
   + x_28_43 + x_33_43 + x_38_43 + x_42_43 + x_43_48 = 0
 c_2_44: - 2 y_44 + x_0_44 + x_1_44 + x_4_44 + x_6_44 + x_8_44 + x_10_44
   + x_19_44 + x_28_44 + x_29_44 + x_32_44 + x_36_44 + x_38_44 + x_39_44
   + x_41_44 + x_44_49 = 0
 c_2_45: - 2 y_45 + x_2_45 + x_11_45 + x_13_45 + x_14_45 + x_20_45
   + x_22_45 + x_23_45 + x_24_45 + x_25_45 + x_26_45 + x_30_45 + x_33_45
   + x_34_45 + x_35_45 + x_37_45 + x_40_45 = 0
 c_2_46: - 2 y_46 + x_0_46 + x_4_46 + x_5_46 + x_12_46 + x_13_46 + x_15_46
   + x_17_46 + x_24_46 + x_25_46 + x_27_46 + x_29_46 + x_30_46 + x_31_46
   + x_32_46 + x_42_46 + x_46_48 = 0
 c_2_47: - 2 y_47 + x_3_47 + x_7_47 + x_14_47 + x_16_47 + x_17_47 + x_26_47
   + x_27_47 + x_31_47 + x_34_47 + x_37_47 + x_41_47 = 0
 c_2_48: - 2 y_48 + x_4_48 + x_8_48 + x_10_48 + x_12_48 + x_17_48 + x_18_48
   + x_26_48 + x_29_48 + x_32_48 + x_34_48 + x_37_48 + x_39_48 + x_40_48
   + x_43_48 + x_46_48 = 0
 c_2_49: - 2 y_49 + x_0_49 + x_1_49 + x_6_49 + x_7_49 + x_20_49 + x_21_49
   + x_22_49 + x_25_49 + x_28_49 + x_32_49 + x_35_49 + x_38_49 + x_44_49
   = 0
Bounds
 Constant = 1
Binaries
 y_0 y_1 y_2 y_3 y_4 y_5 y_6 y_7 y_8 y_9 y_10 y_11 y_12 y_13 y_14 y_15 y_16
 y_17 y_18 y_19 y_20 y_21 y_22 y_23 y_24 y_25 y_26 y_27 y_28 y_29 y_30 y_31
 y_32 y_33 y_34 y_35 y_36 y_37 y_38 y_39 y_40 y_41 y_42 y_43 y_44 y_45 y_46
 y_47 y_48 y_49 x_0_9 x_0_12 x_0_13 x_0_16 x_0_18 x_0_21 x_0_25 x_0_26
 x_0_30 x_0_31 x_0_38 x_0_39 x_0_42 x_0_43 x_0_44 x_0_46 x_0_49 x_1_4 x_1_9
 x_1_12 x_1_18 x_1_23 x_1_31 x_1_33 x_1_35 x_1_38 x_1_39 x_1_40 x_1_44
 x_1_49 x_2_4 x_2_8 x_2_18 x_2_20 x_2_22 x_2_24 x_2_26 x_2_28 x_2_29 x_2_32
 x_2_37 x_2_39 x_2_40 x_2_42 x_2_45 x_3_4 x_3_7 x_3_9 x_3_19 x_3_21 x_3_23
 x_3_27 x_3_38 x_3_40 x_3_42 x_3_47 x_4_7 x_4_9 x_4_10 x_4_15 x_4_16 x_4_18
 x_4_20 x_4_23 x_4_27 x_4_28 x_4_32 x_4_36 x_4_39 x_4_42 x_4_44 x_4_46
 x_4_48 x_5_6 x_5_14 x_5_18 x_5_26 x_5_29 x_5_30 x_5_31 x_5_32 x_5_36
 x_5_37 x_5_38 x_5_40 x_5_46 x_6_7 x_6_12 x_6_22 x_6_23 x_6_24 x_6_25
 x_6_27 x_6_30 x_6_31 x_6_33 x_6_35 x_6_36 x_6_37 x_6_38 x_6_40 x_6_41
 x_6_44 x_6_49 x_7_14 x_7_15 x_7_16 x_7_17 x_7_18 x_7_19 x_7_20 x_7_27
 x_7_28 x_7_36 x_7_38 x_7_39 x_7_47 x_7_49 x_8_10 x_8_11 x_8_13 x_8_16
 x_8_18 x_8_22 x_8_24 x_8_35 x_8_41 x_8_44 x_8_48 x_9_15 x_9_16 x_9_17
 x_9_24 x_9_31 x_9_35 x_9_38 x_9_40 x_9_41 x_10_0 x_10_12 x_10_25 x_10_26
 x_10_28 x_10_33 x_10_36 x_10_42 x_10_43 x_10_44 x_10_48 x_11_12 x_11_15
 x_11_22 x_11_23 x_11_25 x_11_26 x_11_27 x_11_28 x_11_29 x_11_31 x_11_34
 x_11_35 x_11_38 x_11_41 x_11_42 x_11_45 x_12_14 x_12_15 x_12_26 x_12_32
 x_12_33 x_12_37 x_12_38 x_12_39 x_12_43 x_12_46 x_12_48 x_13_14 x_13_17
 x_13_20 x_13_21 x_13_22 x_13_24 x_13_25 x_13_26 x_13_28 x_13_30 x_13_42
 x_13_45 x_13_46 x_14_18 x_14_21 x_14_29 x_14_32 x_14_34 x_14_40 x_14_41
 x_14_45 x_14_47 x_15_16 x_15_18 x_15_21 x_15_23 x_15_24 x_15_25 x_15_29
 x_15_31 x_15_40 x_15_46 x_16_17 x_16_21 x_16_22 x_16_29 x_16_31 x_16_37
 x_16_40 x_16_47 x_17_21 x_17_26 x_17_27 x_17_32 x_17_33 x_17_37 x_17_39
 x_17_46 x_17_47 x_17_48 x_18_26 x_18_27 x_18_28 x_18_33 x_18_36 x_18_37
 x_18_38 x_18_48 x_19_25 x_19_29 x_19_31 x_19_33 x_19_34 x_19_35 x_19_38
 x_19_43 x_19_44 x_20_33 x_20_35 x_20_37 x_20_39 x_20_40 x_20_43 x_20_45
 x_20_49 x_21_23 x_21_33 x_21_40 x_21_41 x_21_42 x_21_49 x_22_27 x_22_30
 x_22_31 x_22_32 x_22_34 x_22_38 x_22_45 x_22_49 x_23_26 x_23_29 x_23_35
 x_23_37 x_23_38 x_23_45 x_24_28 x_24_31 x_24_32 x_24_40 x_24_41 x_24_45
 x_24_46 x_25_26 x_25_37 x_25_45 x_25_46 x_25_49 x_26_29 x_26_31 x_26_32
 x_26_33 x_26_37 x_26_38 x_26_42 x_26_45 x_26_47 x_26_48 x_27_30 x_27_39
 x_27_46 x_27_47 x_28_31 x_28_32 x_28_36 x_28_37 x_28_39 x_28_40 x_28_43
 x_28_44 x_28_49 x_29_36 x_29_37 x_29_44 x_29_46 x_29_48 x_30_33 x_30_34
 x_30_36 x_30_38 x_30_41 x_30_45 x_30_46 x_31_32 x_31_38 x_31_40 x_31_46
 x_31_47 x_32_40 x_32_41 x_32_44 x_32_46 x_32_48 x_32_49 x_33_35 x_33_43
 x_33_45 x_34_37 x_34_38 x_34_45 x_34_47 x_34_48 x_35_37 x_35_38 x_35_42
 x_35_45 x_35_49 x_36_40 x_36_41 x_36_42 x_36_44 x_37_41 x_37_45 x_37_47
 x_37_48 x_38_41 x_38_42 x_38_43 x_38_44 x_38_49 x_39_40 x_39_44 x_39_48
 x_40_41 x_40_45 x_40_48 x_41_44 x_41_47 x_42_43 x_42_46 x_43_48 x_44_49
 x_46_48
End
